VFR600_60_1_Gap.txt
Set parameter Username
Academic license - for non-commercial use only - expires 2023-04-30
Set parameter Threads to value 8
Set parameter TimeLimit to value 3600
Gurobi Optimizer version 9.5.1 build v9.5.1rc2 (linux64)
Thread count: 4 physical cores, 8 logical processors, using up to 8 threads
Optimize a model with 32382000 rows, 21636001 columns and 86328000 nonzeros
Model fingerprint: 0x4227d695
Variable types: 36001 continuous, 21600000 integer (21600000 binary)
Coefficient statistics:
  Matrix range     [1e+00, 2e+06]
  Objective range  [1e+00, 1e+00]
  Bounds range     [1e+00, 1e+00]
  RHS range        [1e+00, 2e+06]
Presolve removed 0 rows and 0 columns (presolve time = 6s) ...
Presolve removed 0 rows and 36000 columns (presolve time = 11s) ...
Presolve removed 10782000 rows and 10818000 columns (presolve time = 16s) ...
Presolve removed 10782000 rows and 10818000 columns (presolve time = 21s) ...
Presolve removed 10782000 rows and 10818000 columns (presolve time = 26s) ...
Presolve removed 10782000 rows and 10818000 columns (presolve time = 32s) ...
Presolve removed 10782000 rows and 10818000 columns (presolve time = 39s) ...
Presolve removed 10782000 rows and 10818000 columns (presolve time = 43s) ...
Presolve removed 10782000 rows and 10818000 columns (presolve time = 46s) ...
Presolve removed 10782000 rows and 10818000 columns (presolve time = 53s) ...
Presolve removed 10782000 rows and 10818000 columns (presolve time = 56s) ...
Presolve removed 10782000 rows and 10818000 columns (presolve time = 60s) ...
Presolve removed 10782000 rows and 10818000 columns (presolve time = 65s) ...
Presolve removed 10782000 rows and 10818000 columns (presolve time = 70s) ...
Presolve removed 10782000 rows and 10818000 columns (presolve time = 75s) ...
Presolve removed 10782000 rows and 10818000 columns (presolve time = 80s) ...
Presolve removed 10782000 rows and 10818000 columns (presolve time = 85s) ...
Presolve removed 10782000 rows and 10818000 columns (presolve time = 90s) ...
Presolve removed 10782000 rows and 10818000 columns (presolve time = 97s) ...
Presolve removed 10782000 rows and 10818000 columns (presolve time = 100s) ...
Presolve removed 10782000 rows and 10818000 columns (presolve time = 105s) ...
Presolve removed 10782000 rows and 10818000 columns (presolve time = 110s) ...
Presolve removed 10782000 rows and 10818000 columns (presolve time = 115s) ...
Presolve removed 10782000 rows and 10818000 columns (presolve time = 197s) ...
Presolve removed 10782000 rows and 10818000 columns (presolve time = 236s) ...
Presolve removed 10782000 rows and 10818000 columns (presolve time = 242s) ...
Presolve removed 10782000 rows and 10818000 columns (presolve time = 248s) ...
Presolve removed 10782000 rows and 10818000 columns (presolve time = 261s) ...
Presolve removed 10782000 rows and 10818000 columns
Presolve time: 261.48s
Presolved: 21600000 rows, 10818001 columns, 64764000 nonzeros
Variable types: 36001 continuous, 10782000 integer (10782000 binary)
Found heuristic solution: objective 42491.000000

Deterministic concurrent LP optimizer: primal simplex, dual simplex, and barrier
Showing barrier log only...

